20
587 233 220
86 79 69
53 46 31
96 51 37
119 55 54
77 74 37
96 73 24
75 67 54
88 71 61
120 93 46
104 70 69
72 69 61
68 51 43
118 71 53
78 57 54
72 67 22
84 82 34
74 72 33
48 37 36
69 57 36
109 68 59
thpack7_74